NAME : LPS-n25-m30
COMMENT : (Lartu-Peter-Santi Plot, instance 8830 out of 39200. 25 customers.)
TYPE : CVRP
DIMENSION : 25
EDGE_WEIGHT_TYPE : EUC_2D
CAPACITY : 108
NODE_COORD_SECTION
 1 70 27
 2 39 36
 3 24 10
 4 67 66
 5 85 97
 6 70 74
 7 30 67
 8 93 77
 9 6 6
 10 16 5
 11 85 32
 12 7 94
 13 44 10
 14 39 15
 15 84 67
 16 33 96
 17 78 19
 18 33 82
 19 21 88
 20 81 37
 21 77 28
 22 36 58
 23 26 78
 24 71 36
 25 94 85
DEMAND_SECTION
1 0
2 14
3 52
4 22
5 82
6 3
7 82
8 2
9 11
10 16
11 56
12 13
13 60
14 60
15 54
16 53
17 30
18 16
19 73
20 19
21 86
22 70
23 27
24 30
25 57
DEPOT_SECTION
 1
 -1
EOF
